NAME          BLANK   
ROWS
 N  OBJROW
 L  R0000000
COLUMNS
    C0000000  OBJROW     -198.         R0000000  714.        
    C0000001  OBJROW     -316.         R0000000  57.         
    C0000002  OBJROW     -406.         R0000000  384.        
    C0000003  OBJROW     -404.         R0000000  924.        
    C0000004  OBJROW     -79.          R0000000  615.        
    C0000005  OBJROW     -461.         R0000000  495.        
    C0000006  OBJROW     -997.         R0000000  15.         
    C0000007  OBJROW     -876.         R0000000  923.        
    C0000008  OBJROW     -430.         R0000000  178.        
    C0000009  OBJROW     -461.         R0000000  634.        
    C0000010  OBJROW     -734.         R0000000  104.        
    C0000011  OBJROW     -515.         R0000000  170.        
    C0000012  OBJROW     -935.         R0000000  360.        
    C0000013  OBJROW     -879.         R0000000  625.        
    C0000014  OBJROW     -133.         R0000000  584.        
    C0000015  OBJROW     -619.         R0000000  473.        
    C0000016  OBJROW     -672.         R0000000  530.        
    C0000017  OBJROW     -576.         R0000000  272.        
    C0000018  OBJROW     -798.         R0000000  569.        
    C0000019  OBJROW     -975.         R0000000  833.        
RHS
    RHS       R0000000  15551.      
BOUNDS
 BV BOUND     C0000000  1.          
 BV BOUND     C0000001  1.          
 BV BOUND     C0000002  1.          
 BV BOUND     C0000003  1.          
 BV BOUND     C0000004  1.          
 BV BOUND     C0000005  1.          
 BV BOUND     C0000006  1.          
 BV BOUND     C0000007  1.          
 BV BOUND     C0000008  1.          
 BV BOUND     C0000009  1.          
 BV BOUND     C0000010  1.          
 BV BOUND     C0000011  1.          
 BV BOUND     C0000012  1.          
 BV BOUND     C0000013  1.          
 BV BOUND     C0000014  1.          
 BV BOUND     C0000015  1.          
 BV BOUND     C0000016  1.          
 BV BOUND     C0000017  1.          
 BV BOUND     C0000018  1.          
 BV BOUND     C0000019  1.          
ENDATA
